
Gurobi 9.5.0 (linux64) logging started Sun Dec  3 19:48:07 2023

Set parameter LogFile to value "/lustre1/scratch/348/vsc34888/JointResearch/05.Models/06.Benchmarking/D.Representative_days_based_on_RES_and_Demand/RTS24_mod1_ByStages_nc300/openStarNet_RTS24_mod1_ByStages_nc300.log"
Set parameter Method to value 2
Set parameter MIPFocus to value 1
Set parameter Presolve to value 2
Set parameter RINS to value 100
Set parameter MIPGap to value 0.01
Set parameter Threads to value 36
Set parameter TimeLimit to value 259200
Set parameter IterationLimit to value 760000000
Gurobi Optimizer version 9.5.0 build v9.5.0rc5 (linux64)
Thread count: 36 physical cores, 36 logical processors, using up to 36 threads
Optimize a model with 106858 rows, 72113 columns and 291276 nonzeros
Model fingerprint: 0x0de71804
Variable types: 72092 continuous, 21 integer (21 binary)
Coefficient statistics:
  Matrix range     [2e-03, 3e+02]
  Objective range  [1e+00, 1e+00]
  Bounds range     [4e-05, 3e+00]
  RHS range        [4e-05, 3e+00]
Presolve removed 63651 rows and 36569 columns
Presolve time: 0.46s
Presolved: 43207 rows, 35544 columns, 156072 nonzeros
Variable types: 35523 continuous, 21 integer (21 binary)
Root relaxation presolved: 43207 rows, 35544 columns, 156072 nonzeros

Root barrier log...

Ordering time: 0.01s

Barrier statistics:
 Dense cols : 21
 AA' NZ     : 2.899e+05
 Factor NZ  : 8.587e+05 (roughly 40 MB of memory)
 Factor Ops : 2.035e+07 (less than 1 second per iteration)
 Threads    : 35

                  Objective                Residual
Iter       Primal          Dual         Primal    Dual     Compl     Time
   0   6.68955967e+05 -7.40671343e+07  5.34e+00 4.71e+01  2.08e+03     1s
   1   1.06797541e+05 -1.92082785e+07  7.11e-01 4.66e-09  2.91e+02     1s
   2   4.13914991e+04 -8.70073655e+06  1.74e-01 1.55e-09  1.01e+02     1s
   3   2.06654904e+04 -8.73095192e+05  5.92e-03 3.44e-10  8.98e+00     1s
   4   1.06928960e+04 -1.17519615e+05  1.36e-04 1.60e-11  1.27e+00     1s
   5   3.52272273e+03 -1.71986092e+04  2.85e-05 1.95e-12  2.06e-01     1s
   6   5.38858710e+02 -4.45816060e+03  1.30e-06 5.29e-13  4.96e-02     1s
   7   3.71070910e+02 -1.78348670e+03  4.98e-07 2.49e-13  2.14e-02     1s
   8   2.05255494e+02 -4.61236394e+02  1.41e-07 3.41e-13  6.62e-03     1s
   9   1.46046767e+02 -1.70981021e+02  7.22e-08 4.55e-13  3.15e-03     1s
  10   1.13817306e+02 -6.65055102e+01  4.29e-08 4.55e-13  1.79e-03     1s
  11   9.47447988e+01  2.11922576e+01  2.63e-08 2.27e-13  7.31e-04     1s
  12   8.80316981e+01  2.60491047e+01  2.07e-08 2.27e-13  6.16e-04     1s
  13   8.16829925e+01  4.27021564e+01  1.55e-08 4.55e-13  3.87e-04     1s
  14   7.41277333e+01  4.67577882e+01  9.28e-09 2.27e-13  2.72e-04     1s
  15   7.12936142e+01  5.12837222e+01  6.89e-09 4.55e-13  1.99e-04     1s
  16   6.86878068e+01  5.38590857e+01  4.76e-09 2.27e-13  1.47e-04     1s
  17   6.72136369e+01  5.78913804e+01  3.51e-09 2.27e-13  9.26e-05     1s
  18   6.57901290e+01  5.94624167e+01  2.43e-09 2.27e-13  6.28e-05     1s
  19   6.50637330e+01  6.03284774e+01  1.84e-09 2.27e-13  4.70e-05     1s
  20   6.47047705e+01  6.07645544e+01  1.53e-09 2.27e-13  3.91e-05     1s
  21   6.44337819e+01  6.10696540e+01  1.29e-09 2.27e-13  3.34e-05     1s
  22   6.38459850e+01  6.16324117e+01  7.98e-10 2.27e-13  2.20e-05     1s
  23   6.32864662e+01  6.20582648e+01  2.56e-10 2.27e-13  1.22e-05     1s
  24   6.31976892e+01  6.23608960e+01  1.74e-10 2.27e-13  8.31e-06     1s
  25   6.31289210e+01  6.25165155e+01  1.12e-10 2.27e-13  6.08e-06     1s
  26   6.31044796e+01  6.26800576e+01  9.05e-11 2.27e-13  4.22e-06     1s
  27   6.30787131e+01  6.28040611e+01  6.67e-11 2.27e-13  2.73e-06     1s
  28   6.30395164e+01  6.28717571e+01  3.11e-11 2.27e-13  1.67e-06     1s
  29   6.30348770e+01  6.29427410e+01  2.68e-11 2.27e-13  9.15e-07     1s
  30   6.30217179e+01  6.29885611e+01  8.22e-11 2.27e-13  3.29e-07     1s
  31   6.30112112e+01  6.29998545e+01  5.29e-11 2.27e-13  1.13e-07     1s
  32   6.30062611e+01  6.30033615e+01  3.80e-11 3.41e-13  2.88e-08     1s
  33   6.30054790e+01  6.30036448e+01  1.91e-10 2.27e-13  1.82e-08     1s
  34   6.30047095e+01  6.30038407e+01  1.40e-10 2.27e-13  8.63e-09     1s
  35   6.30042968e+01  6.30040536e+01  1.38e-10 2.27e-13  2.42e-09     2s
  36   6.30042792e+01  6.30041165e+01  7.31e-11 1.11e-11  1.62e-09     2s
  37   6.30042770e+01  6.30042416e+01  5.67e-11 5.44e-12  3.52e-10     2s
  38   6.30042706e+01  6.30042699e+01  1.18e-10 2.27e-13  6.66e-12     2s
  39   6.30042705e+01  6.30042705e+01  7.00e-11 4.55e-13  6.66e-15     2s

Barrier solved model in 39 iterations and 1.58 seconds (1.31 work units)
Optimal objective 6.30042705e+01


Root relaxation: objective 6.300427e+01, 6853 iterations, 1.31 seconds (1.07 work units)

    Nodes    |    Current Node    |     Objective Bounds      |     Work
 Expl Unexpl |  Obj  Depth IntInf | Incumbent    BestBd   Gap | It/Node Time

     0     0   63.00427    0   18          -   63.00427      -     -    3s
H    0     0                     113.1513776   63.00427  44.3%     -    3s
     0     0   64.05301    0   14  113.15138   64.05301  43.4%     -    6s
H    0     0                     109.1444038   64.05301  41.3%     -    6s
H    0     0                     102.3937561   64.10175  37.4%     -    7s
     0     0   64.10175    0   15  102.39376   64.10175  37.4%     -    7s
     0     0   64.10182    0   15  102.39376   64.10182  37.4%     -    7s
H    0     0                      98.6011573   64.29227  34.8%     -    9s
     0     0   64.29227    0   16   98.60116   64.29227  34.8%     -    9s
     0     0   64.30901    0   13   98.60116   64.30901  34.8%     -   10s
     0     0   64.31051    0   16   98.60116   64.31051  34.8%     -   11s
     0     0   64.31089    0   16   98.60116   64.31089  34.8%     -   11s
     0     0   64.39459    0   13   98.60116   64.39459  34.7%     -   12s
     0     0   64.43088    0   12   98.60116   64.43088  34.7%     -   13s
     0     0   64.43804    0   16   98.60116   64.43804  34.6%     -   13s
     0     0   64.44628    0   11   98.60116   64.44628  34.6%     -   13s
     0     0   64.44702    0   12   98.60116   64.44702  34.6%     -   14s
     0     0   64.47478    0   12   98.60116   64.47478  34.6%     -   15s
     0     0   64.48025    0   14   98.60116   64.48025  34.6%     -   15s
     0     0   64.48143    0   11   98.60116   64.48143  34.6%     -   15s
     0     0   64.48157    0   14   98.60116   64.48157  34.6%     -   15s
H    0     0                      90.9338693   64.48157  29.1%     -   17s
     0     0   64.48995    0   11   90.93387   64.48995  29.1%     -   18s
H    0     0                      81.4667410   64.48995  20.8%     -   51s
     0     2   64.48995    0   11   81.46674   64.48995  20.8%     -   53s
     3     8   65.75462    2   15   81.46674   64.58598  20.7%  4501   56s
    31    58   66.13121    5   15   81.46674   66.04951  18.9%  2599   61s
    63    93   67.86163    6   15   81.46674   66.21008  18.7%  2480   68s
    99   119   69.22534    7   14   81.46674   67.61034  17.0%  2397   89s
H  110   119                      81.4348764   67.65030  16.9%  2342   89s
   135   140   71.51433    8   13   81.43488   67.65030  16.9%  2217  138s
   171   154   75.29980    9   12   81.43488   67.88931  16.6%  2078  140s
   261   181   78.02622   10   11   81.43488   67.88931  16.6%  1881  162s
   355   201     cutoff   10        81.43488   68.73107  15.6%  1841  167s
   414   220     cutoff    8        81.43488   68.74602  15.6%  1818  170s
   543   235   75.50440   10   11   81.43488   68.74602  15.6%  1765  176s
   619   261   78.13698   11   10   81.43488   68.74602  15.6%  1730  180s
   769   279     cutoff   14        81.43488   70.67715  13.2%  1665  186s
   863   303   74.06655    9   12   81.43488   70.67715  13.2%  1613  190s
  1087   294   79.09803   12    9   81.43488   70.67715  13.2%  1491  196s
  1192   288     cutoff   14        81.43488   70.67715  13.2%  1463  226s
  1264   290   81.34896   14    7   81.43488   71.34786  12.4%  1445  230s
  1558   280   78.41071   13    8   81.43488   72.15856  11.4%  1364  237s
  1716   279   81.22209   16    5   81.43488   72.63562  10.8%  1319  240s
  2073   238   77.33849    9   11   81.43488   72.67518  10.8%  1228  247s
  2248   184     cutoff   12        81.43488   72.67518  10.8%  1196  250s
  2624    52   78.70926    8    9   81.43488   74.56655  8.43%  1134  257s
  2879     8   79.54170    8    9   81.43488   75.62543  7.13%  1090  262s
  2916    10   81.15720    9    8   81.43488   76.96796  5.49%  1091  265s

Cutting planes:
  Implied bound: 23
  MIR: 1146
  Relax-and-lift: 157

Explored 2978 nodes (3249478 simplex iterations) in 269.24 seconds (449.15 work units)
Thread count was 36 (of 36 available processors)

Solution count 7: 81.4349 81.4667 90.9339 ... 113.151

Optimal solution found (tolerance 1.00e-02)
Best objective 8.143487643387e+01, best bound 8.143487643387e+01, gap 0.0000%

Gurobi 9.5.0 (linux64) logging started Sun Dec  3 19:53:18 2023

Set parameter LogFile to value "/lustre1/scratch/348/vsc34888/JointResearch/05.Models/06.Benchmarking/D.Representative_days_based_on_RES_and_Demand/RTS24_mod1_ByStages_nc300/openStarNet_RTS24_mod1_ByStages_nc300.log"
Set parameter Method to value 2
Set parameter MIPFocus to value 1
Set parameter Presolve to value 2
Set parameter RINS to value 100
Set parameter MIPGap to value 0.01
Set parameter Threads to value 36
Set parameter TimeLimit to value 259200
Set parameter IterationLimit to value 760000000
No parameters matching 'relax_integrality' found
Gurobi Optimizer version 9.5.0 build v9.5.0rc5 (linux64)
Thread count: 36 physical cores, 36 logical processors, using up to 36 threads
Optimize a model with 106858 rows, 72092 columns and 265971 nonzeros
Model fingerprint: 0xab01a910
Coefficient statistics:
  Matrix range     [2e-03, 3e+02]
  Objective range  [1e+00, 1e+00]
  Bounds range     [4e-05, 3e+00]
  RHS range        [4e-05, 2e+01]
Presolve removed 89355 rows and 40504 columns
Presolve time: 0.13s
Presolved: 17503 rows, 31889 columns, 75398 nonzeros

Ordering time: 0.00s

Barrier statistics:
 AA' NZ     : 3.952e+04
 Factor NZ  : 1.390e+05 (roughly 16 MB of memory)
 Factor Ops : 1.640e+06 (less than 1 second per iteration)
 Threads    : 36

                  Objective                Residual
Iter       Primal          Dual         Primal    Dual     Compl     Time
   0   4.13998349e+06 -3.96206528e+07  5.43e+01 4.82e+01  1.34e+04     0s
   1   2.46660332e+05 -3.06264579e+07  2.64e+00 1.21e-12  1.13e+03     0s
   2   5.56112805e+04 -6.59331874e+06  4.17e-01 2.05e-12  1.75e+02     0s
   3   2.89545095e+04 -1.19754484e+06  5.01e-02 1.28e-12  2.54e+01     0s
   4   1.84513210e+04 -2.84448142e+05  4.62e-03 9.40e-13  5.71e+00     0s
   5   1.00344448e+04 -7.75267744e+04  6.14e-04 4.47e-13  1.63e+00     0s
   6   3.39175610e+03 -3.02540908e+04  1.34e-04 2.47e-13  6.25e-01     0s
   7   7.05267579e+02 -6.03479984e+03  9.71e-06 2.27e-13  1.25e-01     0s
   8   3.76278830e+02 -1.76481016e+03  6.03e-08 2.27e-13  3.98e-02     0s
   9   2.30657087e+02 -5.23356807e+02  9.51e-09 2.27e-13  1.40e-02     0s
  10   1.64289355e+02 -2.02067150e+02  4.01e-09 1.14e-13  6.80e-03     0s
  11   1.15768646e+02 -2.18945671e+01  1.26e-09 1.14e-13  2.56e-03     0s
  12   8.95643363e+01  6.30511124e+01  1.92e-10 1.14e-13  4.92e-04     0s
  13   8.37358957e+01  7.59076202e+01  5.03e-11 1.14e-13  1.45e-04     0s
  14   8.24168415e+01  7.94478121e+01  1.27e-10 2.27e-13  5.51e-05     0s
  15   8.17601034e+01  8.06866472e+01  4.15e-11 1.14e-13  1.99e-05     0s
  16   8.15473989e+01  8.11664689e+01  4.93e-11 2.27e-13  7.07e-06     0s
  17   8.14607230e+01  8.13628545e+01  7.28e-11 1.14e-13  1.82e-06     0s
  18   8.14385792e+01  8.14280997e+01  6.07e-11 2.27e-13  1.95e-07     0s
  19   8.14349413e+01  8.14343488e+01  8.23e-11 1.14e-13  1.10e-08     0s
  20   8.14348765e+01  8.14348759e+01  4.32e-11 2.27e-13  1.14e-11     0s
  21   8.14348764e+01  8.14348764e+01  2.31e-12 1.14e-13  3.52e-17     0s

Barrier solved model in 21 iterations and 0.38 seconds (0.32 work units)
Optimal objective 8.14348764e+01

Crossover log...

    3843 DPushes remaining with DInf 0.0000000e+00                 0s
       0 DPushes remaining with DInf 0.0000000e+00                 0s

     999 PPushes remaining with PInf 0.0000000e+00                 0s
       0 PPushes remaining with PInf 0.0000000e+00                 0s

  Push phase complete: Pinf 0.0000000e+00, Dinf 1.2175904e-13      0s

Iteration    Objective       Primal Inf.    Dual Inf.      Time
    1019    8.1434876e+01   0.000000e+00   0.000000e+00      0s

Use crossover to convert LP symmetric solution to basic solution...
Crossover log...

       0 DPushes remaining with DInf 0.0000000e+00                 0s

     778 PPushes remaining with PInf 0.0000000e+00                 0s
       0 PPushes remaining with PInf 0.0000000e+00                 0s

  Push phase complete: Pinf 0.0000000e+00, Dinf 1.1859342e-13      0s

Iteration    Objective       Primal Inf.    Dual Inf.      Time
    1804    8.1434876e+01   0.000000e+00   0.000000e+00      1s

Solved in 1804 iterations and 0.56 seconds (0.43 work units)
Optimal objective  8.143487643e+01

Gurobi 9.5.0 (linux64) logging started Sat Dec  9 17:30:23 2023

Set parameter LogFile to value "/lustre1/scratch/348/vsc34888/JointResearch/05.Models/06.Benchmarking/D.Representative_days_based_on_RES_and_Demand/RTS24_mod1_ByStages_nc300/openStarNet_RTS24_mod1_ByStages_nc300.log"
Set parameter Method to value 2
Set parameter MIPFocus to value 1
Set parameter Presolve to value 2
Set parameter RINS to value 100
Set parameter MIPGap to value 0.01
Set parameter Threads to value 36
Set parameter TimeLimit to value 259200
Set parameter IterationLimit to value 760000000
Gurobi Optimizer version 9.5.0 build v9.5.0rc5 (linux64)
Thread count: 36 physical cores, 36 logical processors, using up to 36 threads
Optimize a model with 106858 rows, 72148 columns and 291379 nonzeros
Model fingerprint: 0x965c21a6
Variable types: 72127 continuous, 21 integer (21 binary)
Coefficient statistics:
  Matrix range     [1e-03, 3e+02]
  Objective range  [1e+00, 1e+00]
  Bounds range     [4e-05, 3e+00]
  RHS range        [4e-05, 3e+00]
Presolve removed 63650 rows and 36607 columns
Presolve time: 0.46s
Presolved: 43208 rows, 35541 columns, 156070 nonzeros
Variable types: 35520 continuous, 21 integer (21 binary)
Root relaxation presolved: 43208 rows, 35541 columns, 156070 nonzeros

Root barrier log...

Ordering time: 0.01s

Barrier statistics:
 Dense cols : 21
 AA' NZ     : 2.899e+05
 Factor NZ  : 8.445e+05 (roughly 40 MB of memory)
 Factor Ops : 1.935e+07 (less than 1 second per iteration)
 Threads    : 35

                  Objective                Residual
Iter       Primal          Dual         Primal    Dual     Compl     Time
   0   6.64354164e+05 -5.19517217e+07  5.34e+00 5.08e+01  1.46e+03     1s
   1   1.05431850e+05 -1.34741361e+07  7.11e-01 5.10e-09  2.04e+02     1s
   2   4.23156234e+04 -6.12186007e+06  1.87e-01 1.33e-09  7.22e+01     1s
   3   1.92997659e+04 -6.94250227e+05  5.46e-03 3.21e-09  7.16e+00     1s
   4   9.19826736e+03 -9.57650473e+04  4.74e-05 4.13e-10  1.04e+00     1s
   5   2.60309578e+03 -1.44947416e+04  1.02e-05 5.20e-11  1.70e-01     1s
   6   4.42160632e+02 -4.00760323e+03  3.03e-07 1.46e-11  4.42e-02     1s
   7   3.03449227e+02 -1.32552521e+03  1.14e-07 4.87e-12  1.62e-02     1s
   8   1.64219034e+02 -3.91437476e+02  2.96e-08 1.40e-12  5.52e-03     1s
   9   1.17255756e+02 -1.39721403e+02  1.34e-08 6.39e-13  2.55e-03     1s
  10   9.52829581e+01 -1.17931864e+01  7.68e-09 2.42e-13  1.06e-03     1s
  11   8.47285657e+01  1.53031978e+01  5.38e-09 2.27e-13  6.90e-04     1s
  12   7.66952134e+01  2.90169411e+01  3.50e-09 2.27e-13  4.74e-04     1s
  13   7.23161055e+01  3.72167921e+01  2.54e-09 2.27e-13  3.49e-04     1s
  14   6.93938013e+01  4.37619115e+01  1.89e-09 2.27e-13  2.55e-04     1s
  15   6.69804931e+01  4.68467092e+01  1.33e-09 2.27e-13  2.00e-04     1s
  16   6.50013303e+01  5.26094533e+01  8.73e-10 2.27e-13  1.23e-04     1s
  17   6.42856188e+01  5.37948837e+01  7.02e-10 2.27e-13  1.04e-04     1s
  18   6.37061097e+01  5.44719508e+01  5.73e-10 2.27e-13  9.17e-05     1s
  19   6.29886292e+01  5.75006637e+01  4.03e-10 2.27e-13  5.45e-05     1s
  20   6.25038655e+01  5.79463964e+01  2.89e-10 2.27e-13  4.53e-05     1s
  21   6.21466132e+01  5.87235786e+01  1.98e-10 2.27e-13  3.40e-05     1s
  22   6.19171209e+01  5.95749159e+01  1.46e-10 2.27e-13  2.33e-05     1s
  23   6.17660818e+01  6.00287826e+01  1.08e-10 2.27e-13  1.73e-05     1s
  24   6.16582816e+01  6.03012660e+01  8.22e-11 2.27e-13  1.35e-05     1s
  25   6.15571030e+01  6.03982129e+01  5.78e-11 2.27e-13  1.15e-05     1s
  26   6.14456413e+01  6.08187966e+01  3.08e-11 2.27e-13  6.23e-06     1s
  27   6.13955601e+01  6.10005340e+01  2.05e-11 2.27e-13  3.92e-06     1s
  28   6.13720786e+01  6.10762009e+01  2.58e-11 2.27e-13  2.94e-06     1s
  29   6.13553528e+01  6.11537600e+01  4.43e-11 2.27e-13  2.00e-06     1s
  30   6.13323682e+01  6.11856260e+01  5.08e-11 2.27e-13  1.46e-06     1s
  31   6.13267628e+01  6.12097609e+01  3.36e-11 4.55e-13  1.16e-06     1s
  32   6.13259814e+01  6.12420411e+01  2.47e-11 2.27e-13  8.34e-07     1s
  33   6.13176405e+01  6.12625802e+01  3.32e-11 2.27e-13  5.47e-07     1s
  34   6.13164144e+01  6.12749549e+01  2.71e-11 2.27e-13  4.12e-07     1s
  35   6.13146703e+01  6.12863102e+01  2.95e-11 2.27e-13  2.82e-07     2s
  36   6.13136403e+01  6.13009387e+01  3.28e-11 2.27e-13  1.26e-07     2s
  37   6.13129816e+01  6.13080410e+01  1.16e-10 2.27e-13  4.91e-08     2s
  38   6.13122194e+01  6.13097263e+01  4.06e-10 2.27e-13  2.48e-08     2s
  39   6.13121168e+01  6.13109619e+01  2.84e-10 2.27e-13  1.15e-08     2s
  40   6.13118017e+01  6.13112183e+01  1.86e-09 2.27e-13  5.79e-09     2s
  41   6.13117428e+01  6.13114582e+01  1.27e-09 2.27e-13  2.83e-09     2s
  42   6.13117317e+01  6.13116538e+01  9.42e-10 2.27e-13  7.74e-10     2s
  43   6.13117195e+01  6.13116574e+01  5.34e-10 4.55e-13  6.17e-10     2s
  44   6.13117070e+01  6.13117068e+01  2.57e-10 4.55e-13  1.60e-12     2s

Barrier solved model in 44 iterations and 1.66 seconds (1.40 work units)
Optimal objective 6.13117070e+01


Root relaxation: objective 6.131171e+01, 6886 iterations, 1.45 seconds (1.14 work units)

    Nodes    |    Current Node    |     Objective Bounds      |     Work
 Expl Unexpl |  Obj  Depth IntInf | Incumbent    BestBd   Gap | It/Node Time

     0     0   61.31171    0   18          -   61.31171      -     -    3s
H    0     0                     112.1682221   61.31171  45.3%     -    3s
     0     0   62.03720    0   12  112.16822   62.03720  44.7%     -    6s
H    0     0                     101.7361598   62.08728  39.0%     -    7s
     0     0   62.08728    0   15  101.73616   62.08728  39.0%     -    7s
H    0     0                      98.3774375   62.24011  36.7%     -    9s
     0     0   62.24011    0   12   98.37744   62.24011  36.7%     -    9s
     0     0   62.27523    0   12   98.37744   62.27523  36.7%     -   11s
     0     0   62.43743    0   14   98.37744   62.43743  36.5%     -   12s
H    0     0                      94.9762704   62.45255  34.2%     -   13s
     0     0   62.45255    0   14   94.97627   62.45255  34.2%     -   13s
     0     0   62.45562    0   14   94.97627   62.45562  34.2%     -   13s
     0     0   62.45562    0   14   94.97627   62.45562  34.2%     -   14s
     0     0   62.54940    0   13   94.97627   62.54940  34.1%     -   15s
     0     0   62.56525    0   13   94.97627   62.56525  34.1%     -   16s
     0     0   62.56540    0   13   94.97627   62.56540  34.1%     -   16s
H    0     0                      87.2764213   62.56540  28.3%     -   16s
     0     0   62.56540    0   13   87.27642   62.56540  28.3%     -   16s
     0     0   62.63893    0   13   87.27642   62.63893  28.2%     -   19s
H    0     0                      80.2600771   62.63893  22.0%     -  109s
     0     2   62.63893    0   13   80.26008   62.63893  22.0%     -  110s
     7    16   63.60761    3   17   80.26008   63.57053  20.8%  3456  115s
    31    58   65.99486    5   16   80.26008   63.87505  20.4%  2946  120s
    63    90   66.79553    6   15   80.26008   65.80372  18.0%  2903  128s
    99   126   68.36203    7   14   80.26008   65.80641  18.0%  2602  145s
   207   203   74.74039    9   12   80.26008   65.80641  18.0%  2168  151s
   260   219     cutoff    9        80.26008   65.80641  18.0%  1993  164s
   303   251   78.40389   10   11   80.26008   65.80641  18.0%  1962  168s
   361   268     cutoff   10        80.26008   65.80641  18.0%  1882  170s
   509   296     cutoff   11        80.26008   65.80641  18.0%  1723  175s
   676   286     cutoff   12        80.26008   66.69574  16.9%  1566  224s
   740   301   74.00939    7   11   80.26008   66.69574  16.9%  1577  228s
   837   305   80.16948    8   11   80.26008   66.69574  16.9%  1545  231s
  1037   320     cutoff    9        80.26008   68.42967  14.7%  1505  237s
  1159   316   74.36551    7    9   80.26008   68.42967  14.7%  1473  240s
  1400   319     cutoff   11        80.26008   69.28239  13.7%  1438  427s
  1466   319   77.62697   11   10   80.26008   69.28239  13.7%  1439  446s
  1544   329   79.66974   13    8   80.26008   70.34747  12.4%  1426  450s
  1959   352   77.02830   12    8   80.26008   71.86669  10.5%  1310  457s
  2160   325     cutoff   14        80.26008   72.04255  10.2%  1275  460s
  2399   338   75.77503    8   10   80.26008   72.04255  10.2%  1227  712s
  2551   296   75.46431    8    8   80.26008   72.04255  10.2%  1206  717s
  2885   220     cutoff   10        80.26008   74.81773  6.78%  1145  720s
  3603    48   76.05184   11    9   80.26008   74.86011  6.73%  1030  726s
  3856    23   78.10950   13    7   80.26008   74.86011  6.73%   994  739s
  3897     6   78.49858   14    6   80.26008   77.41428  3.55%   988  763s
  3934     0   78.06318   11    9   80.26008   77.81200  3.05%   983  765s

Cutting planes:
  Gomory: 1
  Implied bound: 74
  MIR: 1389
  Relax-and-lift: 148

Explored 3956 nodes (3897784 simplex iterations) in 765.36 seconds (1193.30 work units)
Thread count was 36 (of 36 available processors)

Solution count 6: 80.2601 87.2764 94.9763 ... 112.168

Optimal solution found (tolerance 1.00e-02)
Best objective 8.026007707257e+01, best bound 8.026007707257e+01, gap 0.0000%

Gurobi 9.5.0 (linux64) logging started Sat Dec  9 17:43:49 2023

Set parameter LogFile to value "/lustre1/scratch/348/vsc34888/JointResearch/05.Models/06.Benchmarking/D.Representative_days_based_on_RES_and_Demand/RTS24_mod1_ByStages_nc300/openStarNet_RTS24_mod1_ByStages_nc300.log"
Set parameter Method to value 2
Set parameter MIPFocus to value 1
Set parameter Presolve to value 2
Set parameter RINS to value 100
Set parameter MIPGap to value 0.01
Set parameter Threads to value 36
Set parameter TimeLimit to value 259200
Set parameter IterationLimit to value 760000000
No parameters matching 'relax_integrality' found
Gurobi Optimizer version 9.5.0 build v9.5.0rc5 (linux64)
Thread count: 36 physical cores, 36 logical processors, using up to 36 threads
Optimize a model with 106858 rows, 72127 columns and 266074 nonzeros
Model fingerprint: 0x8b3b7ea8
Coefficient statistics:
  Matrix range     [1e-03, 3e+02]
  Objective range  [1e+00, 1e+00]
  Bounds range     [4e-05, 3e+00]
  RHS range        [4e-05, 2e+01]
Presolve removed 90002 rows and 41788 columns
Presolve time: 0.14s
Presolved: 16856 rows, 30872 columns, 73930 nonzeros

Ordering time: 0.00s

Barrier statistics:
 AA' NZ     : 4.174e+04
 Factor NZ  : 1.455e+05 (roughly 17 MB of memory)
 Factor Ops : 1.839e+06 (less than 1 second per iteration)
 Threads    : 36

                  Objective                Residual
Iter       Primal          Dual         Primal    Dual     Compl     Time
   0   6.87929779e+06 -4.05200529e+07  5.16e+01 7.17e+01  1.38e+04     0s
   1   3.82240126e+05 -3.30824033e+07  2.59e+00 5.53e+01  1.21e+03     0s
   2   6.97019379e+04 -7.11004838e+06  4.00e-01 2.19e+00  1.85e+02     0s
   3   3.04666590e+04 -1.54975592e+06  7.16e-02 1.43e-02  3.39e+01     0s
   4   1.79010985e+04 -3.17891847e+05  6.18e-03 1.36e-12  6.34e+00     0s
   5   9.39189359e+03 -8.42013151e+04  6.20e-04 1.37e-12  1.73e+00     0s
   6   3.20904025e+03 -1.21099308e+04  1.15e-04 1.53e-12  2.83e-01     0s
   7   6.05470732e+02 -2.74645131e+03  8.49e-06 3.03e-04  6.19e-02     0s
   8   2.94263506e+02 -7.18820100e+02  6.22e-07 8.49e-05  1.87e-02     0s
   9   1.80465233e+02 -2.32934620e+02  1.45e-07 4.55e-13  7.63e-03     0s
  10   1.23884740e+02 -3.78788008e+01  5.73e-08 4.55e-13  2.99e-03     0s
  11   9.49516497e+01  4.46447404e+01  1.75e-08 4.55e-13  9.29e-04     0s
  12   8.26230393e+01  7.26510324e+01  1.88e-09 4.55e-13  1.84e-04     0s
  13   8.08175561e+01  7.84910551e+01  3.73e-10 4.55e-13  4.29e-05     0s
  14   8.04590608e+01  7.95140288e+01  2.12e-10 4.55e-13  1.74e-05     0s
  15   8.03069088e+01  7.99584747e+01  5.79e-11 4.55e-13  6.43e-06     0s
  16   8.02798895e+01  8.01840980e+01  6.82e-11 4.55e-13  1.77e-06     0s
  17   8.02669659e+01  8.02513024e+01  4.77e-11 4.55e-13  2.89e-07     0s
  18   8.02610725e+01  8.02599357e+01  5.02e-10 4.55e-13  2.10e-08     0s
  19   8.02600928e+01  8.02600365e+01  2.74e-09 4.55e-13  1.04e-09     0s
  20   8.02600772e+01  8.02600769e+01  2.41e-10 4.55e-13  4.61e-12     0s
  21   8.02600771e+01  8.02600771e+01  7.68e-12 4.55e-13  1.36e-17     0s

Barrier solved model in 21 iterations and 0.37 seconds (0.32 work units)
Optimal objective 8.02600771e+01

Crossover log...

    3922 DPushes remaining with DInf 0.0000000e+00                 0s
       0 DPushes remaining with DInf 0.0000000e+00                 0s

     974 PPushes remaining with PInf 0.0000000e+00                 0s
       0 PPushes remaining with PInf 0.0000000e+00                 0s

  Push phase complete: Pinf 0.0000000e+00, Dinf 2.6728101e-13      0s

Iteration    Objective       Primal Inf.    Dual Inf.      Time
    1078    8.0260077e+01   0.000000e+00   0.000000e+00      0s

Use crossover to convert LP symmetric solution to basic solution...
Crossover log...

       0 DPushes remaining with DInf 0.0000000e+00                 0s

     764 PPushes remaining with PInf 0.0000000e+00                 0s
       0 PPushes remaining with PInf 0.0000000e+00                 0s

  Push phase complete: Pinf 0.0000000e+00, Dinf 2.1604308e-13      0s

Iteration    Objective       Primal Inf.    Dual Inf.      Time
    1914    8.0260077e+01   0.000000e+00   0.000000e+00      1s

Solved in 1914 iterations and 0.57 seconds (0.44 work units)
Optimal objective  8.026007707e+01
